27	3

10	10	10	

0	0	0	0	3	2	3	4	
3	3	5	2	2	5	8	
4	5	4	3	2	6	7	
3	5	2	2	1	5	
4	4	1	4	1	9	
3	5	5	4	1	10	
6	3	5	2	2	10	12	
5	2	4	4	2	9	11	
2	3	2	2	1	13	
2	3	2	4	1	14	
4	3	3	2	1	13	
8	4	1	4	3	14	15	16	
3	1	4	4	1	17	
2	2	2	2	1	19	
3	5	5	4	2	17	20	
2	1	5	4	1	18	
3	4	5	4	1	21	
2	3	2	3	2	21	24	
5	5	3	3	1	22	
3	2	4	6	2	21	23	
2	1	6	2	1	25	
5	3	2	1	1	25	
3	1	0	4	2	25	26	
2	2	2	1	1	25	
3	0	1	3	1	27	
3	2	2	2	1	27	
0	0	0	0	0	
